\ENCODING=ISO-8859-1
\Problem name: D:\IDEA\works\src\examples\data\example.mps

Minimize
 obj: - x1 - 2 x2 - 3 x3
Subject To
 c1: - x1 + x2 + x3 <= 20
 c2: x1 - 3 x2 + x3 <= 30
 c3: 3 x1 + 2 x2 - x3 >= 100
 c4: x3 - 4 x4 <= 40
Bounds
 0 <= x1 <= 40
      x2 >= 10
 0 <= x3 <= 100
End
